TYPE : Vertex Cover
DIMENSION: 31
EDGE_DATA_SECTION:
0 17
0 20
0 21
0 22
0 24
0 26
0 28
0 29
1 9
1 10
1 11
1 12
1 13
1 18
1 19
1 22
1 24
1 30
2 4
2 11
2 13
2 20
2 22
2 25
2 30
3 6
3 11
3 15
3 17
3 21
3 23
3 29
3 30
4 11
4 13
4 15
4 20
4 25
4 30
5 7
5 9
5 25
5 29
6 15
6 23
6 26
6 28
6 29
7 11
7 18
7 22
7 25
8 11
8 13
8 18
8 21
8 27
8 28
9 10
9 11
9 12
9 13
9 14
9 17
9 20
9 24
9 25
9 27
10 12
10 19
10 21
10 25
11 14
11 15
11 16
11 17
11 18
11 26
11 28
11 29
11 30
12 20
12 21
12 22
12 29
13 18
13 21
13 24
13 25
13 26
13 29
14 16
15 18
15 23
15 25
15 28
15 29
16 19
16 21
16 22
17 24
17 26
18 23
18 25
18 29
19 21
19 23
19 25
19 26
19 29
20 21
20 30
21 25
21 26
21 29
22 26
22 30
23 27
25 28
27 30
-1
VERTEX_DEGREE:
8.0 10.0 7.0 8.0 7.0 4.0 6.0 5.0 6.0 12.0 6.0 16.0 7.0 11.0 3.0 9.0 5.0 6.0 9.0 8.0 7.0 12.0 8.0 6.0 5.0 12.0 8.0 4.0 6.0 11.0 8.0
VERTEX_COVER:
0 1 2 4 6 7 8 9 11 12 13 14 15 17 19 21 22 23 25 29 30
EOF
